problem_generation/data/GISP/train/er_n=63_m=1170_p=0.60_SET2_setparam=100.00_alpha=0.50_981.lp
maximize
OBJ:100x0 + 100x1 + 100x2 + 100x3 + 100x4 + 100x5 + 100x6 + 100x7 + 100x8 + 100x9 + 100x10 + 100x11 + 100x12 + 100x13 + 100x14 + 100x15 + 100x16 + 100x17 + 100x18 + 100x19 + 100x20 + 100x21 + 100x22 + 100x23 + 100x24 + 100x25 + 100x26 + 100x27 + 100x28 + 100x29 + 100x30 + 100x31 + 100x32 + 100x33 + 100x34 + 100x35 + 100x36 + 100x37 + 100x38 + 100x39 + 100x40 + 100x41 + 100x42 + 100x43 + 100x44 + 100x45 + 100x46 + 100x47 + 100x48 + 100x49 + 100x50 + 100x51 + 100x52 + 100x53 + 100x54 + 100x55 + 100x56 + 100x57 + 100x58 + 100x59 + 100x60 + 100x61 + 100x62 - y55_57 - y26_30 - y47_62 - y28_58 - y29_41 - y8_18 - y21_37 - y6_48 - y40_50 - y21_55 - y41_42 - y2_32 - y25_34 - y10_54 - y33_56 - y2_50 - y2_59 - y22_37 - y3_33 - y14_51 - y15_16 - y47_48 - y40_45 - y6_52 - y29_54 - y40_54 - y6_61 - y33_42 - y25_38 - y3_10 - y22_23 - y3_19 - y43_55 - y3_28 - y14_28 - y35_60 - y3_37 - y14_37 - y36_43 - y7_16 - y17_57 - y28_57 - y9_53 - y6_29 - y29_31 - y9_62 - y6_47 - y21_45 - y40_58 - y10_17 - y39_62 - y33_37 - y43_50 - y22_27 - y13_46 - y24_46 - y3_23 - y35_46 - y43_59 - y1_62 - y36_38 - y28_34 - y7_11 - y9_30 - y36_47 - y5_41 - y17_43 - y9_39 - y5_50 - y6_33 - y29_44 - y6_51 - y10_12 - y39_48 - y2_8 - y10_21 - y39_57 - y2_17 - y20_53 - y54_55 - y25_28 - y12_58 - y23_58 - y24_32 - y43_45 - y35_41 - y3_18 - y16_37 - y1_48 - y13_50 - y24_50 - y24_59 - y35_59 - y17_20 - y36_42 - y9_25 - y5_36 - y17_38 - y17_47 - y9_43 - y5_54 - y6_19 - y50_53 - y29_30 - y9_61 - y61_62 - y42_58 - y21_35 - y6_46 - y20_39 - y12_44 - y2_21 - y12_53 - y2_30 - y13_27 - y13_36 - y43_49 - y13_45 - y24_45 - y32_58 - y17_24 - y17_33 - y9_29 - y5_58 - y58_61 - y42_44 - y27_55 - y21_30 - y11_56 - y20_43 - y12_39 - y23_39 - y31_52 - y23_48 - y23_57 - y13_22 - y24_40 - y1_47 - y24_49 - y35_58 - y16_54 - y5_17 - y17_19 - y46_55 - y28_37 - y5_44 - y6_9 - y6_18 - y27_50 - y8_46 - y42_48 - y19_55 - y2_11 - y20_47 - y20_56 - y31_56 - y4_48 - y23_61 - y1_33 - y24_35 - y1_42 - y35_44 - y16_40 - y1_51 - y16_49 - y5_12 - y5_21 - y49_55 - y9_28 - y5_39 - y8_32 - y19_32 - y27_45 - y42_52 - y0_46 - y19_59 - y12_20 - y12_29 - y20_42 - y12_38 - y23_38 - y20_51 - y4_34 - y31_51 - y12_47 - y23_56 - y1_19 - y1_28 - y24_30 - y4_61 - y16_26 - y22_60 - y45_62 - y16_35 - y38_41 - y46_54 - y38_59 - y8_27 - y19_27 - y19_36 - y11_32 - y8_45 - y30_45 - y27_58 - y8_54 - y11_59 - y39_41 - y20_37 - y4_20 - y31_37 - y23_33 - y34_39 - y4_47 - y45_48 - y1_23 - y37_44 - y38_45 - y15_52 - y7_48 - y27_35 - y0_18 - y27_44 - y11_27 - y30_40 - y19_49 - y41_46 - y20_23 - y0_54 - y12_19 - y20_32 - y12_28 - y33_60 - y25_56 - y53_56 - y45_52 - y3_46 - y14_46 - y56_61 - y14_55 - y26_29 - y18_25 - y26_47 - y7_52 - y18_52 - y0_13 - y11_13 - y0_31 - y30_44 - y11_49 - y4_10 - y12_23 - y33_55 - y44_55 - y2_58 - y3_32 - y14_59 - y15_24 - y18_20 - y15_51 - y7_47 - y8_12 - y0_8 - y7_56 - y40_53 - y8_30 - y0_26 - y6_60 - y41_45 - y41_54 - y4_14 - y25_46 - y44_59 - y3_27 - y22_40 - y34_42 - y37_38 - y37_47 - y15_28 - y18_33 - y0_3 - y48_52 - y19_25 - y21_44 - y6_55 - y21_53 - y33_36 - y41_58 - y33_54 - y44_54 - y2_48 - y3_40 - y14_40 - y3_49 - y14_49 - y7_10 - y7_19 - y47_55 - y17_51 - y28_51 - y7_28 - y17_60 - y28_60 - y7_37 - y9_56 - y18_37 - y29_34 - y6_41 - y0_16 - y11_16 - y41_44 - y33_49 - y44_49 - y25_45 - y25_54 - y14_26 - y3_35 - y36_41 - y15_18 - y36_50 - y47_50 - y17_46 - y5_53 - y28_55 - y5_62 - y9_60 - y0_2 - y40_47 - y6_54 - y29_56 - y21_61 - y54_58 - y2_29 - y25_40 - y10_51 - y51_52 - y3_12 - y32_48 - y51_61 - y3_30 - y13_62 - y17_32 - y28_41 - y47_54 - y5_57 - y28_59 - y21_29 - y6_49 - y40_51 - y2_24 - y25_26 - y54_62 - y2_33 - y2_42 - y3_7 - y3_16 - y32_52 - y24_48 - y43_61 - y1_55 - y24_57 - y16_53 - y36_40 - y9_23 - y36_49 - y17_45 - y28_45 - y47_58 - y5_61 - y21_24 - y50_60 - y6_35 - y21_33 - y6_44 - y10_14 - y2_10 - y39_59 - y20_55 - y12_51 - y23_51 - y12_60 - y13_25 - y4_56 - y32_38 - y13_34 - y43_56 - y16_39 - y36_44 - y5_38 - y9_36 - y5_47 - y5_56 - y9_54 - y42_51 - y19_58 - y20_50 - y23_46 - y12_55 - y13_29 - y4_60 - y13_38 - y35_38 - y32_51 - y24_47 - y35_47 - y16_43 - y1_54 - y35_56 - y46_53 - y46_62 - y28_35 - y5_42 - y6_7 - y27_57 - y8_53 - y19_53 - y0_49 - y11_58 - y31_36 - y23_32 - y20_45 - y39_58 - y23_41 - y13_15 - y1_22 - y43_46 - y16_29 - y1_49 - y5_10 - y1_58 - y5_19 - y28_30 - y27_43 - y8_39 - y19_39 - y8_48 - y11_44 - y19_57 - y42_59 - y11_53 - y11_62 - y2_4 - y23_36 - y20_49 - y12_45 - y23_45 - y31_58 - y4_41 - y12_54 - y13_19 - y23_54 - y13_28 - y24_28 - y45_60 - y56_60 - y13_37 - y46_52 - y15_46 - y5_23 - y9_21 - y26_55 - y5_32 - y7_51 - y49_57 - y27_38 - y8_34 - y0_30 - y42_45 - y0_48 - y11_48 - y8_61 - y19_61 - y20_26 - y0_57 - y12_22 - y12_31 - y23_31 - y31_44 - y4_27 - y4_36 - y34_46 - y45_46 - y53_59 - y37_51 - y46_47 - y38_43 - y5_18 - y26_50 - y38_52 - y49_52 - y18_46 - y15_59 - y26_59 - y49_61 - y8_20 - y11_25 - y8_38 - y30_38 - y11_34 - y8_56 - y0_52 - y11_61 - y41_62 - y31_39 - y1_16 - y53_54 - y34_50 - y45_59 - y3_53 - y3_62 - y5_13 - y7_32 - y18_32 - y15_45 - y49_56 - y8_15 - y0_11 - y7_59 - y8_24 - y0_20 - y8_42 - y19_42 - y30_42 - y11_38 - y19_51 - y30_51 - y41_57 - y4_17 - y44_62 - y4_35 - y34_36 - y1_11 - y22_43 - y3_48 - y22_61 - y14_57 - y15_22 - y26_31 - y7_27 - y15_40 - y26_40 - y38_42 - y15_49 - y8_10 - y26_58 - y48_55 - y8_28 - y29_60 - y21_56 - y11_33 - y41_52 - y41_61 - y4_21 - y10_55 - y33_57 - y2_51 - y22_29 - y2_60 - y14_34 - y45_49 - y3_43 - y14_43 - y45_58 - y3_52 - y15_17 - y7_13 - y3_61 - y14_61 - y55_62 - y59_60 - y15_35 - y18_31 - y7_40 - y48_50 - y0_10 - y29_46 - y11_19 - y0_28 - y6_62 - y41_47 - y33_43 - y44_52 - y25_48 - y10_59 - y22_24 - y33_61 - y25_57 - y14_20 - y3_29 - y22_42 - y3_38 - y14_38 - y22_51 - y37_40 - y7_8
 Subject to
C1: x0+x2-y0_2 <=1 
C2: x0+x3-y0_3 <=1 
C3: x0+x6 <=1 
C4: x0+x7 <=1 
C5: x0+x8-y0_8 <=1 
C6: x0+x10-y0_10 <=1 
C7: x0+x11-y0_11 <=1 
C8: x0+x12 <=1 
C9: x0+x13-y0_13 <=1 
C10: x0+x16-y0_16 <=1 
C11: x0+x18-y0_18 <=1 
C12: x0+x20-y0_20 <=1 
C13: x0+x21 <=1 
C14: x0+x23 <=1 
C15: x0+x26-y0_26 <=1 
C16: x0+x27 <=1 
C17: x0+x28-y0_28 <=1 
C18: x0+x29 <=1 
C19: x0+x30-y0_30 <=1 
C20: x0+x31-y0_31 <=1 
C21: x0+x34 <=1 
C22: x0+x36 <=1 
C23: x0+x43 <=1 
C24: x0+x45 <=1 
C25: x0+x46-y0_46 <=1 
C26: x0+x47 <=1 
C27: x0+x48-y0_48 <=1 
C28: x0+x49-y0_49 <=1 
C29: x0+x52-y0_52 <=1 
C30: x0+x54-y0_54 <=1 
C31: x0+x55 <=1 
C32: x0+x56 <=1 
C33: x0+x57-y0_57 <=1 
C34: x0+x61 <=1 
C35: x0+x62 <=1 
C36: x1+x2 <=1 
C37: x1+x3 <=1 
C38: x1+x4 <=1 
C39: x1+x6 <=1 
C40: x1+x7 <=1 
C41: x1+x9 <=1 
C42: x1+x11-y1_11 <=1 
C43: x1+x12 <=1 
C44: x1+x16-y1_16 <=1 
C45: x1+x18 <=1 
C46: x1+x19-y1_19 <=1 
C47: x1+x22-y1_22 <=1 
C48: x1+x23-y1_23 <=1 
C49: x1+x24 <=1 
C50: x1+x26 <=1 
C51: x1+x28-y1_28 <=1 
C52: x1+x29 <=1 
C53: x1+x30 <=1 
C54: x1+x31 <=1 
C55: x1+x33-y1_33 <=1 
C56: x1+x35 <=1 
C57: x1+x39 <=1 
C58: x1+x40 <=1 
C59: x1+x41 <=1 
C60: x1+x42-y1_42 <=1 
C61: x1+x47-y1_47 <=1 
C62: x1+x48-y1_48 <=1 
C63: x1+x49-y1_49 <=1 
C64: x1+x51-y1_51 <=1 
C65: x1+x52 <=1 
C66: x1+x54-y1_54 <=1 
C67: x1+x55-y1_55 <=1 
C68: x1+x56 <=1 
C69: x1+x58-y1_58 <=1 
C70: x1+x59 <=1 
C71: x1+x62-y1_62 <=1 
C72: x2+x4-y2_4 <=1 
C73: x2+x5 <=1 
C74: x2+x6 <=1 
C75: x2+x7 <=1 
C76: x2+x8-y2_8 <=1 
C77: x2+x9 <=1 
C78: x2+x10-y2_10 <=1 
C79: x2+x11-y2_11 <=1 
C80: x2+x12 <=1 
C81: x2+x14 <=1 
C82: x2+x17-y2_17 <=1 
C83: x2+x19 <=1 
C84: x2+x21-y2_21 <=1 
C85: x2+x22 <=1 
C86: x2+x24-y2_24 <=1 
C87: x2+x25 <=1 
C88: x2+x29-y2_29 <=1 
C89: x2+x30-y2_30 <=1 
C90: x2+x32-y2_32 <=1 
C91: x2+x33-y2_33 <=1 
C92: x2+x37 <=1 
C93: x2+x39 <=1 
C94: x2+x41 <=1 
C95: x2+x42-y2_42 <=1 
C96: x2+x44 <=1 
C97: x2+x45 <=1 
C98: x2+x47 <=1 
C99: x2+x48-y2_48 <=1 
C100: x2+x50-y2_50 <=1 
C101: x2+x51-y2_51 <=1 
C102: x2+x52 <=1 
C103: x2+x53 <=1 
C104: x2+x54 <=1 
C105: x2+x56 <=1 
C106: x2+x57 <=1 
C107: x2+x58-y2_58 <=1 
C108: x2+x59-y2_59 <=1 
C109: x2+x60-y2_60 <=1 
C110: x3+x4 <=1 
C111: x3+x7-y3_7 <=1 
C112: x3+x10-y3_10 <=1 
C113: x3+x11 <=1 
C114: x3+x12-y3_12 <=1 
C115: x3+x15 <=1 
C116: x3+x16-y3_16 <=1 
C117: x3+x17 <=1 
C118: x3+x18-y3_18 <=1 
C119: x3+x19-y3_19 <=1 
C120: x3+x20 <=1 
C121: x3+x21 <=1 
C122: x3+x23-y3_23 <=1 
C123: x3+x26 <=1 
C124: x3+x27-y3_27 <=1 
C125: x3+x28-y3_28 <=1 
C126: x3+x29-y3_29 <=1 
C127: x3+x30-y3_30 <=1 
C128: x3+x32-y3_32 <=1 
C129: x3+x33-y3_33 <=1 
C130: x3+x35-y3_35 <=1 
C131: x3+x37-y3_37 <=1 
C132: x3+x38-y3_38 <=1 
C133: x3+x39 <=1 
C134: x3+x40-y3_40 <=1 
C135: x3+x41 <=1 
C136: x3+x42 <=1 
C137: x3+x43-y3_43 <=1 
C138: x3+x45 <=1 
C139: x3+x46-y3_46 <=1 
C140: x3+x47 <=1 
C141: x3+x48-y3_48 <=1 
C142: x3+x49-y3_49 <=1 
C143: x3+x51 <=1 
C144: x3+x52-y3_52 <=1 
C145: x3+x53-y3_53 <=1 
C146: x3+x56 <=1 
C147: x3+x57 <=1 
C148: x3+x60 <=1 
C149: x3+x61-y3_61 <=1 
C150: x3+x62-y3_62 <=1 
C151: x4+x7 <=1 
C152: x4+x9 <=1 
C153: x4+x10-y4_10 <=1 
C154: x4+x11 <=1 
C155: x4+x12 <=1 
C156: x4+x13 <=1 
C157: x4+x14-y4_14 <=1 
C158: x4+x15 <=1 
C159: x4+x17-y4_17 <=1 
C160: x4+x18 <=1 
C161: x4+x20-y4_20 <=1 
C162: x4+x21-y4_21 <=1 
C163: x4+x22 <=1 
C164: x4+x23 <=1 
C165: x4+x24 <=1 
C166: x4+x25 <=1 
C167: x4+x26 <=1 
C168: x4+x27-y4_27 <=1 
C169: x4+x28 <=1 
C170: x4+x30 <=1 
C171: x4+x34-y4_34 <=1 
C172: x4+x35-y4_35 <=1 
C173: x4+x36-y4_36 <=1 
C174: x4+x37 <=1 
C175: x4+x38 <=1 
C176: x4+x39 <=1 
C177: x4+x41-y4_41 <=1 
C178: x4+x46 <=1 
C179: x4+x47-y4_47 <=1 
C180: x4+x48-y4_48 <=1 
C181: x4+x49 <=1 
C182: x4+x50 <=1 
C183: x4+x52 <=1 
C184: x4+x53 <=1 
C185: x4+x55 <=1 
C186: x4+x56-y4_56 <=1 
C187: x4+x58 <=1 
C188: x4+x59 <=1 
C189: x4+x60-y4_60 <=1 
C190: x4+x61-y4_61 <=1 
C191: x5+x6 <=1 
C192: x5+x8 <=1 
C193: x5+x9 <=1 
C194: x5+x10-y5_10 <=1 
C195: x5+x12-y5_12 <=1 
C196: x5+x13-y5_13 <=1 
C197: x5+x17-y5_17 <=1 
C198: x5+x18-y5_18 <=1 
C199: x5+x19-y5_19 <=1 
C200: x5+x21-y5_21 <=1 
C201: x5+x22 <=1 
C202: x5+x23-y5_23 <=1 
C203: x5+x26 <=1 
C204: x5+x27 <=1 
C205: x5+x28 <=1 
C206: x5+x32-y5_32 <=1 
C207: x5+x36-y5_36 <=1 
C208: x5+x38-y5_38 <=1 
C209: x5+x39-y5_39 <=1 
C210: x5+x40 <=1 
C211: x5+x41-y5_41 <=1 
C212: x5+x42-y5_42 <=1 
C213: x5+x43 <=1 
C214: x5+x44-y5_44 <=1 
C215: x5+x45 <=1 
C216: x5+x47-y5_47 <=1 
C217: x5+x50-y5_50 <=1 
C218: x5+x53-y5_53 <=1 
C219: x5+x54-y5_54 <=1 
C220: x5+x56-y5_56 <=1 
C221: x5+x57-y5_57 <=1 
C222: x5+x58-y5_58 <=1 
C223: x5+x59 <=1 
C224: x5+x60 <=1 
C225: x5+x61-y5_61 <=1 
C226: x5+x62-y5_62 <=1 
C227: x6+x7-y6_7 <=1 
C228: x6+x9-y6_9 <=1 
C229: x6+x10 <=1 
C230: x6+x18-y6_18 <=1 
C231: x6+x19-y6_19 <=1 
C232: x6+x20 <=1 
C233: x6+x22 <=1 
C234: x6+x23 <=1 
C235: x6+x28 <=1 
C236: x6+x29-y6_29 <=1 
C237: x6+x30 <=1 
C238: x6+x31 <=1 
C239: x6+x33-y6_33 <=1 
C240: x6+x35-y6_35 <=1 
C241: x6+x38 <=1 
C242: x6+x39 <=1 
C243: x6+x40 <=1 
C244: x6+x41-y6_41 <=1 
C245: x6+x43 <=1 
C246: x6+x44-y6_44 <=1 
C247: x6+x46-y6_46 <=1 
C248: x6+x47-y6_47 <=1 
C249: x6+x48-y6_48 <=1 
C250: x6+x49-y6_49 <=1 
C251: x6+x51-y6_51 <=1 
C252: x6+x52-y6_52 <=1 
C253: x6+x53 <=1 
C254: x6+x54-y6_54 <=1 
C255: x6+x55-y6_55 <=1 
C256: x6+x56 <=1 
C257: x6+x60-y6_60 <=1 
C258: x6+x61-y6_61 <=1 
C259: x6+x62-y6_62 <=1 
C260: x7+x8-y7_8 <=1 
C261: x7+x10-y7_10 <=1 
C262: x7+x11-y7_11 <=1 
C263: x7+x13-y7_13 <=1 
C264: x7+x15 <=1 
C265: x7+x16-y7_16 <=1 
C266: x7+x18 <=1 
C267: x7+x19-y7_19 <=1 
C268: x7+x20 <=1 
C269: x7+x24 <=1 
C270: x7+x26 <=1 
C271: x7+x27-y7_27 <=1 
C272: x7+x28-y7_28 <=1 
C273: x7+x30 <=1 
C274: x7+x32-y7_32 <=1 
C275: x7+x34 <=1 
C276: x7+x37-y7_37 <=1 
C277: x7+x38 <=1 
C278: x7+x40-y7_40 <=1 
C279: x7+x42 <=1 
C280: x7+x43 <=1 
C281: x7+x44 <=1 
C282: x7+x46 <=1 
C283: x7+x47-y7_47 <=1 
C284: x7+x48-y7_48 <=1 
C285: x7+x49 <=1 
C286: x7+x51-y7_51 <=1 
C287: x7+x52-y7_52 <=1 
C288: x7+x55 <=1 
C289: x7+x56-y7_56 <=1 
C290: x7+x59-y7_59 <=1 
C291: x7+x61 <=1 
C292: x8+x10-y8_10 <=1 
C293: x8+x12-y8_12 <=1 
C294: x8+x14 <=1 
C295: x8+x15-y8_15 <=1 
C296: x8+x18-y8_18 <=1 
C297: x8+x20-y8_20 <=1 
C298: x8+x21 <=1 
C299: x8+x23 <=1 
C300: x8+x24-y8_24 <=1 
C301: x8+x26 <=1 
C302: x8+x27-y8_27 <=1 
C303: x8+x28-y8_28 <=1 
C304: x8+x30-y8_30 <=1 
C305: x8+x31 <=1 
C306: x8+x32-y8_32 <=1 
C307: x8+x34-y8_34 <=1 
C308: x8+x35 <=1 
C309: x8+x36 <=1 
C310: x8+x37 <=1 
C311: x8+x38-y8_38 <=1 
C312: x8+x39-y8_39 <=1 
C313: x8+x42-y8_42 <=1 
C314: x8+x44 <=1 
C315: x8+x45-y8_45 <=1 
C316: x8+x46-y8_46 <=1 
C317: x8+x48-y8_48 <=1 
C318: x8+x49 <=1 
C319: x8+x52 <=1 
C320: x8+x53-y8_53 <=1 
C321: x8+x54-y8_54 <=1 
C322: x8+x56-y8_56 <=1 
C323: x8+x57 <=1 
C324: x8+x58 <=1 
C325: x8+x59 <=1 
C326: x8+x61-y8_61 <=1 
C327: x9+x14 <=1 
C328: x9+x17 <=1 
C329: x9+x20 <=1 
C330: x9+x21-y9_21 <=1 
C331: x9+x22 <=1 
C332: x9+x23-y9_23 <=1 
C333: x9+x25-y9_25 <=1 
C334: x9+x28-y9_28 <=1 
C335: x9+x29-y9_29 <=1 
C336: x9+x30-y9_30 <=1 
C337: x9+x35 <=1 
C338: x9+x36-y9_36 <=1 
C339: x9+x39-y9_39 <=1 
C340: x9+x40 <=1 
C341: x9+x43-y9_43 <=1 
C342: x9+x44 <=1 
C343: x9+x45 <=1 
C344: x9+x47 <=1 
C345: x9+x49 <=1 
C346: x9+x51 <=1 
C347: x9+x53-y9_53 <=1 
C348: x9+x54-y9_54 <=1 
C349: x9+x55 <=1 
C350: x9+x56-y9_56 <=1 
C351: x9+x60-y9_60 <=1 
C352: x9+x61-y9_61 <=1 
C353: x9+x62-y9_62 <=1 
C354: x10+x12-y10_12 <=1 
C355: x10+x14-y10_14 <=1 
C356: x10+x17-y10_17 <=1 
C357: x10+x19 <=1 
C358: x10+x20 <=1 
C359: x10+x21-y10_21 <=1 
C360: x10+x24 <=1 
C361: x10+x27 <=1 
C362: x10+x32 <=1 
C363: x10+x39 <=1 
C364: x10+x41 <=1 
C365: x10+x45 <=1 
C366: x10+x47 <=1 
C367: x10+x49 <=1 
C368: x10+x51-y10_51 <=1 
C369: x10+x54-y10_54 <=1 
C370: x10+x55-y10_55 <=1 
C371: x10+x57 <=1 
C372: x10+x58 <=1 
C373: x10+x59-y10_59 <=1 
C374: x10+x60 <=1 
C375: x10+x61 <=1 
C376: x10+x62 <=1 
C377: x11+x12 <=1 
C378: x11+x13-y11_13 <=1 
C379: x11+x16-y11_16 <=1 
C380: x11+x19-y11_19 <=1 
C381: x11+x21 <=1 
C382: x11+x23 <=1 
C383: x11+x25-y11_25 <=1 
C384: x11+x26 <=1 
C385: x11+x27-y11_27 <=1 
C386: x11+x29 <=1 
C387: x11+x30 <=1 
C388: x11+x31 <=1 
C389: x11+x32-y11_32 <=1 
C390: x11+x33-y11_33 <=1 
C391: x11+x34-y11_34 <=1 
C392: x11+x35 <=1 
C393: x11+x37 <=1 
C394: x11+x38-y11_38 <=1 
C395: x11+x42 <=1 
C396: x11+x44-y11_44 <=1 
C397: x11+x48-y11_48 <=1 
C398: x11+x49-y11_49 <=1 
C399: x11+x50 <=1 
C400: x11+x52 <=1 
C401: x11+x53-y11_53 <=1 
C402: x11+x56-y11_56 <=1 
C403: x11+x58-y11_58 <=1 
C404: x11+x59-y11_59 <=1 
C405: x11+x61-y11_61 <=1 
C406: x11+x62-y11_62 <=1 
C407: x12+x13 <=1 
C408: x12+x14 <=1 
C409: x12+x17 <=1 
C410: x12+x19-y12_19 <=1 
C411: x12+x20-y12_20 <=1 
C412: x12+x22-y12_22 <=1 
C413: x12+x23-y12_23 <=1 
C414: x12+x27 <=1 
C415: x12+x28-y12_28 <=1 
C416: x12+x29-y12_29 <=1 
C417: x12+x30 <=1 
C418: x12+x31-y12_31 <=1 
C419: x12+x34 <=1 
C420: x12+x38-y12_38 <=1 
C421: x12+x39-y12_39 <=1 
C422: x12+x43 <=1 
C423: x12+x44-y12_44 <=1 
C424: x12+x45-y12_45 <=1 
C425: x12+x47-y12_47 <=1 
C426: x12+x48 <=1 
C427: x12+x49 <=1 
C428: x12+x50 <=1 
C429: x12+x51-y12_51 <=1 
C430: x12+x52 <=1 
C431: x12+x53-y12_53 <=1 
C432: x12+x54-y12_54 <=1 
C433: x12+x55-y12_55 <=1 
C434: x12+x57 <=1 
C435: x12+x58-y12_58 <=1 
C436: x12+x59 <=1 
C437: x12+x60-y12_60 <=1 
C438: x13+x14 <=1 
C439: x13+x15-y13_15 <=1 
C440: x13+x17 <=1 
C441: x13+x18 <=1 
C442: x13+x19-y13_19 <=1 
C443: x13+x22-y13_22 <=1 
C444: x13+x24 <=1 
C445: x13+x25-y13_25 <=1 
C446: x13+x26 <=1 
C447: x13+x27-y13_27 <=1 
C448: x13+x28-y13_28 <=1 
C449: x13+x29-y13_29 <=1 
C450: x13+x33 <=1 
C451: x13+x34-y13_34 <=1 
C452: x13+x36-y13_36 <=1 
C453: x13+x37-y13_37 <=1 
C454: x13+x38-y13_38 <=1 
C455: x13+x41 <=1 
C456: x13+x45-y13_45 <=1 
C457: x13+x46-y13_46 <=1 
C458: x13+x48 <=1 
C459: x13+x49 <=1 
C460: x13+x50-y13_50 <=1 
C461: x13+x56 <=1 
C462: x13+x58 <=1 
C463: x13+x59 <=1 
C464: x13+x62-y13_62 <=1 
C465: x14+x15 <=1 
C466: x14+x16 <=1 
C467: x14+x17 <=1 
C468: x14+x18 <=1 
C469: x14+x20-y14_20 <=1 
C470: x14+x23 <=1 
C471: x14+x24 <=1 
C472: x14+x25 <=1 
C473: x14+x26-y14_26 <=1 
C474: x14+x28-y14_28 <=1 
C475: x14+x30 <=1 
C476: x14+x32 <=1 
C477: x14+x34-y14_34 <=1 
C478: x14+x36 <=1 
C479: x14+x37-y14_37 <=1 
C480: x14+x38-y14_38 <=1 
C481: x14+x39 <=1 
C482: x14+x40-y14_40 <=1 
C483: x14+x43-y14_43 <=1 
C484: x14+x45 <=1 
C485: x14+x46-y14_46 <=1 
C486: x14+x49-y14_49 <=1 
C487: x14+x51-y14_51 <=1 
C488: x14+x52 <=1 
C489: x14+x53 <=1 
C490: x14+x55-y14_55 <=1 
C491: x14+x57-y14_57 <=1 
C492: x14+x58 <=1 
C493: x14+x59-y14_59 <=1 
C494: x14+x61-y14_61 <=1 
C495: x15+x16-y15_16 <=1 
C496: x15+x17-y15_17 <=1 
C497: x15+x18-y15_18 <=1 
C498: x15+x19 <=1 
C499: x15+x20 <=1 
C500: x15+x21 <=1 
C501: x15+x22-y15_22 <=1 
C502: x15+x23 <=1 
C503: x15+x24-y15_24 <=1 
C504: x15+x25 <=1 
C505: x15+x28-y15_28 <=1 
C506: x15+x30 <=1 
C507: x15+x32 <=1 
C508: x15+x35-y15_35 <=1 
C509: x15+x37 <=1 
C510: x15+x38 <=1 
C511: x15+x40-y15_40 <=1 
C512: x15+x45-y15_45 <=1 
C513: x15+x46-y15_46 <=1 
C514: x15+x47 <=1 
C515: x15+x48 <=1 
C516: x15+x49-y15_49 <=1 
C517: x15+x51-y15_51 <=1 
C518: x15+x52-y15_52 <=1 
C519: x15+x55 <=1 
C520: x15+x59-y15_59 <=1 
C521: x15+x61 <=1 
C522: x15+x62 <=1 
C523: x16+x17 <=1 
C524: x16+x21 <=1 
C525: x16+x23 <=1 
C526: x16+x26-y16_26 <=1 
C527: x16+x27 <=1 
C528: x16+x28 <=1 
C529: x16+x29-y16_29 <=1 
C530: x16+x31 <=1 
C531: x16+x34 <=1 
C532: x16+x35-y16_35 <=1 
C533: x16+x37-y16_37 <=1 
C534: x16+x39-y16_39 <=1 
C535: x16+x40-y16_40 <=1 
C536: x16+x41 <=1 
C537: x16+x43-y16_43 <=1 
C538: x16+x44 <=1 
C539: x16+x46 <=1 
C540: x16+x49-y16_49 <=1 
C541: x16+x53-y16_53 <=1 
C542: x16+x54-y16_54 <=1 
C543: x16+x55 <=1 
C544: x16+x58 <=1 
C545: x16+x59 <=1 
C546: x16+x62 <=1 
C547: x17+x19-y17_19 <=1 
C548: x17+x20-y17_20 <=1 
C549: x17+x21 <=1 
C550: x17+x22 <=1 
C551: x17+x23 <=1 
C552: x17+x24-y17_24 <=1 
C553: x17+x26 <=1 
C554: x17+x29 <=1 
C555: x17+x31 <=1 
C556: x17+x32-y17_32 <=1 
C557: x17+x33-y17_33 <=1 
C558: x17+x34 <=1 
C559: x17+x38-y17_38 <=1 
C560: x17+x39 <=1 
C561: x17+x40 <=1 
C562: x17+x42 <=1 
C563: x17+x43-y17_43 <=1 
C564: x17+x44 <=1 
C565: x17+x45-y17_45 <=1 
C566: x17+x46-y17_46 <=1 
C567: x17+x47-y17_47 <=1 
C568: x17+x51-y17_51 <=1 
C569: x17+x53 <=1 
C570: x17+x54 <=1 
C571: x17+x55 <=1 
C572: x17+x57-y17_57 <=1 
C573: x17+x59 <=1 
C574: x17+x60-y17_60 <=1 
C575: x17+x61 <=1 
C576: x17+x62 <=1 
C577: x18+x19 <=1 
C578: x18+x20-y18_20 <=1 
C579: x18+x21 <=1 
C580: x18+x22 <=1 
C581: x18+x25-y18_25 <=1 
C582: x18+x29 <=1 
C583: x18+x31-y18_31 <=1 
C584: x18+x32-y18_32 <=1 
C585: x18+x33-y18_33 <=1 
C586: x18+x34 <=1 
C587: x18+x35 <=1 
C588: x18+x37-y18_37 <=1 
C589: x18+x38 <=1 
C590: x18+x39 <=1 
C591: x18+x46-y18_46 <=1 
C592: x18+x47 <=1 
C593: x18+x48 <=1 
C594: x18+x49 <=1 
C595: x18+x50 <=1 
C596: x18+x52-y18_52 <=1 
C597: x18+x55 <=1 
C598: x18+x56 <=1 
C599: x18+x60 <=1 
C600: x18+x61 <=1 
C601: x19+x21 <=1 
C602: x19+x22 <=1 
C603: x19+x25-y19_25 <=1 
C604: x19+x26 <=1 
C605: x19+x27-y19_27 <=1 
C606: x19+x28 <=1 
C607: x19+x29 <=1 
C608: x19+x30 <=1 
C609: x19+x32-y19_32 <=1 
C610: x19+x34 <=1 
C611: x19+x36-y19_36 <=1 
C612: x19+x37 <=1 
C613: x19+x39-y19_39 <=1 
C614: x19+x40 <=1 
C615: x19+x42-y19_42 <=1 
C616: x19+x45 <=1 
C617: x19+x47 <=1 
C618: x19+x48 <=1 
C619: x19+x49-y19_49 <=1 
C620: x19+x50 <=1 
C621: x19+x51-y19_51 <=1 
C622: x19+x53-y19_53 <=1 
C623: x19+x55-y19_55 <=1 
C624: x19+x57-y19_57 <=1 
C625: x19+x58-y19_58 <=1 
C626: x19+x59-y19_59 <=1 
C627: x19+x61-y19_61 <=1 
C628: x19+x62 <=1 
C629: x20+x21 <=1 
C630: x20+x22 <=1 
C631: x20+x23-y20_23 <=1 
C632: x20+x24 <=1 
C633: x20+x25 <=1 
C634: x20+x26-y20_26 <=1 
C635: x20+x31 <=1 
C636: x20+x32-y20_32 <=1 
C637: x20+x36 <=1 
C638: x20+x37-y20_37 <=1 
C639: x20+x38 <=1 
C640: x20+x39-y20_39 <=1 
C641: x20+x42-y20_42 <=1 
C642: x20+x43-y20_43 <=1 
C643: x20+x44 <=1 
C644: x20+x45-y20_45 <=1 
C645: x20+x47-y20_47 <=1 
C646: x20+x49-y20_49 <=1 
C647: x20+x50-y20_50 <=1 
C648: x20+x51-y20_51 <=1 
C649: x20+x52 <=1 
C650: x20+x53-y20_53 <=1 
C651: x20+x54 <=1 
C652: x20+x55-y20_55 <=1 
C653: x20+x56-y20_56 <=1 
C654: x20+x57 <=1 
C655: x20+x59 <=1 
C656: x20+x61 <=1 
C657: x20+x62 <=1 
C658: x21+x22 <=1 
C659: x21+x24-y21_24 <=1 
C660: x21+x25 <=1 
C661: x21+x27 <=1 
C662: x21+x28 <=1 
C663: x21+x29-y21_29 <=1 
C664: x21+x30-y21_30 <=1 
C665: x21+x33-y21_33 <=1 
C666: x21+x34 <=1 
C667: x21+x35-y21_35 <=1 
C668: x21+x37-y21_37 <=1 
C669: x21+x38 <=1 
C670: x21+x39 <=1 
C671: x21+x40 <=1 
C672: x21+x42 <=1 
C673: x21+x44-y21_44 <=1 
C674: x21+x45-y21_45 <=1 
C675: x21+x47 <=1 
C676: x21+x52 <=1 
C677: x21+x53-y21_53 <=1 
C678: x21+x55-y21_55 <=1 
C679: x21+x56-y21_56 <=1 
C680: x21+x57 <=1 
C681: x21+x58 <=1 
C682: x21+x61-y21_61 <=1 
C683: x21+x62 <=1 
C684: x22+x23-y22_23 <=1 
C685: x22+x24-y22_24 <=1 
C686: x22+x25 <=1 
C687: x22+x27-y22_27 <=1 
C688: x22+x29-y22_29 <=1 
C689: x22+x32 <=1 
C690: x22+x34 <=1 
C691: x22+x35 <=1 
C692: x22+x37-y22_37 <=1 
C693: x22+x40-y22_40 <=1 
C694: x22+x42-y22_42 <=1 
C695: x22+x43-y22_43 <=1 
C696: x22+x44 <=1 
C697: x22+x48 <=1 
C698: x22+x50 <=1 
C699: x22+x51-y22_51 <=1 
C700: x22+x56 <=1 
C701: x22+x58 <=1 
C702: x22+x59 <=1 
C703: x22+x60-y22_60 <=1 
C704: x22+x61-y22_61 <=1 
C705: x23+x24 <=1 
C706: x23+x26 <=1 
C707: x23+x29 <=1 
C708: x23+x31-y23_31 <=1 
C709: x23+x32-y23_32 <=1 
C710: x23+x33-y23_33 <=1 
C711: x23+x35 <=1 
C712: x23+x36-y23_36 <=1 
C713: x23+x38-y23_38 <=1 
C714: x23+x39-y23_39 <=1 
C715: x23+x41-y23_41 <=1 
C716: x23+x45-y23_45 <=1 
C717: x23+x46-y23_46 <=1 
C718: x23+x48-y23_48 <=1 
C719: x23+x51-y23_51 <=1 
C720: x23+x54-y23_54 <=1 
C721: x23+x55 <=1 
C722: x23+x56-y23_56 <=1 
C723: x23+x57-y23_57 <=1 
C724: x23+x58-y23_58 <=1 
C725: x23+x61-y23_61 <=1 
C726: x24+x25 <=1 
C727: x24+x26 <=1 
C728: x24+x28-y24_28 <=1 
C729: x24+x30-y24_30 <=1 
C730: x24+x31 <=1 
C731: x24+x32-y24_32 <=1 
C732: x24+x33 <=1 
C733: x24+x35-y24_35 <=1 
C734: x24+x36 <=1 
C735: x24+x39 <=1 
C736: x24+x40-y24_40 <=1 
C737: x24+x41 <=1 
C738: x24+x45-y24_45 <=1 
C739: x24+x46-y24_46 <=1 
C740: x24+x47-y24_47 <=1 
C741: x24+x48-y24_48 <=1 
C742: x24+x49-y24_49 <=1 
C743: x24+x50-y24_50 <=1 
C744: x24+x54 <=1 
C745: x24+x55 <=1 
C746: x24+x56 <=1 
C747: x24+x57-y24_57 <=1 
C748: x24+x59-y24_59 <=1 
C749: x24+x62 <=1 
C750: x25+x26-y25_26 <=1 
C751: x25+x28-y25_28 <=1 
C752: x25+x29 <=1 
C753: x25+x31 <=1 
C754: x25+x32 <=1 
C755: x25+x34-y25_34 <=1 
C756: x25+x35 <=1 
C757: x25+x36 <=1 
C758: x25+x37 <=1 
C759: x25+x38-y25_38 <=1 
C760: x25+x40-y25_40 <=1 
C761: x25+x43 <=1 
C762: x25+x45-y25_45 <=1 
C763: x25+x46-y25_46 <=1 
C764: x25+x48-y25_48 <=1 
C765: x25+x49 <=1 
C766: x25+x50 <=1 
C767: x25+x51 <=1 
C768: x25+x52 <=1 
C769: x25+x53 <=1 
C770: x25+x54-y25_54 <=1 
C771: x25+x55 <=1 
C772: x25+x56-y25_56 <=1 
C773: x25+x57-y25_57 <=1 
C774: x25+x60 <=1 
C775: x26+x27 <=1 
C776: x26+x29-y26_29 <=1 
C777: x26+x30-y26_30 <=1 
C778: x26+x31-y26_31 <=1 
C779: x26+x40-y26_40 <=1 
C780: x26+x47-y26_47 <=1 
C781: x26+x48 <=1 
C782: x26+x50-y26_50 <=1 
C783: x26+x53 <=1 
C784: x26+x54 <=1 
C785: x26+x55-y26_55 <=1 
C786: x26+x56 <=1 
C787: x26+x58-y26_58 <=1 
C788: x26+x59-y26_59 <=1 
C789: x27+x30 <=1 
C790: x27+x31 <=1 
C791: x27+x33 <=1 
C792: x27+x35-y27_35 <=1 
C793: x27+x37 <=1 
C794: x27+x38-y27_38 <=1 
C795: x27+x39 <=1 
C796: x27+x41 <=1 
C797: x27+x42 <=1 
C798: x27+x43-y27_43 <=1 
C799: x27+x44-y27_44 <=1 
C800: x27+x45-y27_45 <=1 
C801: x27+x46 <=1 
C802: x27+x50-y27_50 <=1 
C803: x27+x51 <=1 
C804: x27+x53 <=1 
C805: x27+x55-y27_55 <=1 
C806: x27+x56 <=1 
C807: x27+x57-y27_57 <=1 
C808: x27+x58-y27_58 <=1 
C809: x27+x59 <=1 
C810: x27+x61 <=1 
C811: x28+x30-y28_30 <=1 
C812: x28+x31 <=1 
C813: x28+x32 <=1 
C814: x28+x34-y28_34 <=1 
C815: x28+x35-y28_35 <=1 
C816: x28+x36 <=1 
C817: x28+x37-y28_37 <=1 
C818: x28+x39 <=1 
C819: x28+x41-y28_41 <=1 
C820: x28+x43 <=1 
C821: x28+x45-y28_45 <=1 
C822: x28+x50 <=1 
C823: x28+x51-y28_51 <=1 
C824: x28+x52 <=1 
C825: x28+x55-y28_55 <=1 
C826: x28+x57-y28_57 <=1 
C827: x28+x58-y28_58 <=1 
C828: x28+x59-y28_59 <=1 
C829: x28+x60-y28_60 <=1 
C830: x28+x62 <=1 
C831: x29+x30-y29_30 <=1 
C832: x29+x31-y29_31 <=1 
C833: x29+x33 <=1 
C834: x29+x34-y29_34 <=1 
C835: x29+x35 <=1 
C836: x29+x39 <=1 
C837: x29+x41-y29_41 <=1 
C838: x29+x42 <=1 
C839: x29+x44-y29_44 <=1 
C840: x29+x45 <=1 
C841: x29+x46-y29_46 <=1 
C842: x29+x47 <=1 
C843: x29+x48 <=1 
C844: x29+x49 <=1 
C845: x29+x50 <=1 
C846: x29+x54-y29_54 <=1 
C847: x29+x56-y29_56 <=1 
C848: x29+x57 <=1 
C849: x29+x60-y29_60 <=1 
C850: x29+x62 <=1 
C851: x30+x34 <=1 
C852: x30+x35 <=1 
C853: x30+x37 <=1 
C854: x30+x38-y30_38 <=1 
C855: x30+x39 <=1 
C856: x30+x40-y30_40 <=1 
C857: x30+x41 <=1 
C858: x30+x42-y30_42 <=1 
C859: x30+x43 <=1 
C860: x30+x44-y30_44 <=1 
C861: x30+x45-y30_45 <=1 
C862: x30+x47 <=1 
C863: x30+x48 <=1 
C864: x30+x51-y30_51 <=1 
C865: x30+x59 <=1 
C866: x30+x61 <=1 
C867: x30+x62 <=1 
C868: x31+x32 <=1 
C869: x31+x35 <=1 
C870: x31+x36-y31_36 <=1 
C871: x31+x37-y31_37 <=1 
C872: x31+x39-y31_39 <=1 
C873: x31+x40 <=1 
C874: x31+x42 <=1 
C875: x31+x43 <=1 
C876: x31+x44-y31_44 <=1 
C877: x31+x46 <=1 
C878: x31+x47 <=1 
C879: x31+x48 <=1 
C880: x31+x50 <=1 
C881: x31+x51-y31_51 <=1 
C882: x31+x52-y31_52 <=1 
C883: x31+x55 <=1 
C884: x31+x56-y31_56 <=1 
C885: x31+x57 <=1 
C886: x31+x58-y31_58 <=1 
C887: x31+x59 <=1 
C888: x31+x60 <=1 
C889: x31+x62 <=1 
C890: x32+x33 <=1 
C891: x32+x34 <=1 
C892: x32+x38-y32_38 <=1 
C893: x32+x40 <=1 
C894: x32+x42 <=1 
C895: x32+x47 <=1 
C896: x32+x48-y32_48 <=1 
C897: x32+x49 <=1 
C898: x32+x51-y32_51 <=1 
C899: x32+x52-y32_52 <=1 
C900: x32+x54 <=1 
C901: x32+x55 <=1 
C902: x32+x56 <=1 
C903: x32+x57 <=1 
C904: x32+x58-y32_58 <=1 
C905: x32+x59 <=1 
C906: x32+x60 <=1 
C907: x32+x62 <=1 
C908: x33+x35 <=1 
C909: x33+x36-y33_36 <=1 
C910: x33+x37-y33_37 <=1 
C911: x33+x40 <=1 
C912: x33+x41 <=1 
C913: x33+x42-y33_42 <=1 
C914: x33+x43-y33_43 <=1 
C915: x33+x44 <=1 
C916: x33+x47 <=1 
C917: x33+x49-y33_49 <=1 
C918: x33+x52 <=1 
C919: x33+x54-y33_54 <=1 
C920: x33+x55-y33_55 <=1 
C921: x33+x56-y33_56 <=1 
C922: x33+x57-y33_57 <=1 
C923: x33+x60-y33_60 <=1 
C924: x33+x61-y33_61 <=1 
C925: x34+x35 <=1 
C926: x34+x36-y34_36 <=1 
C927: x34+x37 <=1 
C928: x34+x38 <=1 
C929: x34+x39-y34_39 <=1 
C930: x34+x40 <=1 
C931: x34+x42-y34_42 <=1 
C932: x34+x46-y34_46 <=1 
C933: x34+x47 <=1 
C934: x34+x50-y34_50 <=1 
C935: x34+x59 <=1 
C936: x34+x60 <=1 
C937: x34+x61 <=1 
C938: x35+x38-y35_38 <=1 
C939: x35+x40 <=1 
C940: x35+x41-y35_41 <=1 
C941: x35+x42 <=1 
C942: x35+x43 <=1 
C943: x35+x44-y35_44 <=1 
C944: x35+x46-y35_46 <=1 
C945: x35+x47-y35_47 <=1 
C946: x35+x49 <=1 
C947: x35+x50 <=1 
C948: x35+x51 <=1 
C949: x35+x54 <=1 
C950: x35+x55 <=1 
C951: x35+x56-y35_56 <=1 
C952: x35+x57 <=1 
C953: x35+x58-y35_58 <=1 
C954: x35+x59-y35_59 <=1 
C955: x35+x60-y35_60 <=1 
C956: x35+x61 <=1 
C957: x36+x38-y36_38 <=1 
C958: x36+x39 <=1 
C959: x36+x40-y36_40 <=1 
C960: x36+x41-y36_41 <=1 
C961: x36+x42-y36_42 <=1 
C962: x36+x43-y36_43 <=1 
C963: x36+x44-y36_44 <=1 
C964: x36+x47-y36_47 <=1 
C965: x36+x49-y36_49 <=1 
C966: x36+x50-y36_50 <=1 
C967: x36+x51 <=1 
C968: x36+x53 <=1 
C969: x36+x54 <=1 
C970: x36+x55 <=1 
C971: x36+x56 <=1 
C972: x36+x57 <=1 
C973: x36+x59 <=1 
C974: x36+x60 <=1 
C975: x36+x62 <=1 
C976: x37+x38-y37_38 <=1 
C977: x37+x40-y37_40 <=1 
C978: x37+x43 <=1 
C979: x37+x44-y37_44 <=1 
C980: x37+x45 <=1 
C981: x37+x47-y37_47 <=1 
C982: x37+x48 <=1 
C983: x37+x51-y37_51 <=1 
C984: x37+x52 <=1 
C985: x37+x54 <=1 
C986: x37+x57 <=1 
C987: x37+x59 <=1 
C988: x37+x60 <=1 
C989: x38+x40 <=1 
C990: x38+x41-y38_41 <=1 
C991: x38+x42-y38_42 <=1 
C992: x38+x43-y38_43 <=1 
C993: x38+x45-y38_45 <=1 
C994: x38+x47 <=1 
C995: x38+x50 <=1 
C996: x38+x52-y38_52 <=1 
C997: x38+x53 <=1 
C998: x38+x54 <=1 
C999: x38+x58 <=1 
C1000: x38+x59-y38_59 <=1 
C1001: x38+x60 <=1 
C1002: x38+x61 <=1 
C1003: x39+x40 <=1 
C1004: x39+x41-y39_41 <=1 
C1005: x39+x43 <=1 
C1006: x39+x44 <=1 
C1007: x39+x46 <=1 
C1008: x39+x48-y39_48 <=1 
C1009: x39+x51 <=1 
C1010: x39+x53 <=1 
C1011: x39+x54 <=1 
C1012: x39+x57-y39_57 <=1 
C1013: x39+x58-y39_58 <=1 
C1014: x39+x59-y39_59 <=1 
C1015: x39+x60 <=1 
C1016: x39+x61 <=1 
C1017: x39+x62-y39_62 <=1 
C1018: x40+x42 <=1 
C1019: x40+x45-y40_45 <=1 
C1020: x40+x46 <=1 
C1021: x40+x47-y40_47 <=1 
C1022: x40+x49 <=1 
C1023: x40+x50-y40_50 <=1 
C1024: x40+x51-y40_51 <=1 
C1025: x40+x52 <=1 
C1026: x40+x53-y40_53 <=1 
C1027: x40+x54-y40_54 <=1 
C1028: x40+x55 <=1 
C1029: x40+x58-y40_58 <=1 
C1030: x40+x60 <=1 
C1031: x40+x61 <=1 
C1032: x41+x42-y41_42 <=1 
C1033: x41+x43 <=1 
C1034: x41+x44-y41_44 <=1 
C1035: x41+x45-y41_45 <=1 
C1036: x41+x46-y41_46 <=1 
C1037: x41+x47-y41_47 <=1 
C1038: x41+x49 <=1 
C1039: x41+x51 <=1 
C1040: x41+x52-y41_52 <=1 
C1041: x41+x53 <=1 
C1042: x41+x54-y41_54 <=1 
C1043: x41+x55 <=1 
C1044: x41+x56 <=1 
C1045: x41+x57-y41_57 <=1 
C1046: x41+x58-y41_58 <=1 
C1047: x41+x59 <=1 
C1048: x41+x61-y41_61 <=1 
C1049: x41+x62-y41_62 <=1 
C1050: x42+x44-y42_44 <=1 
C1051: x42+x45-y42_45 <=1 
C1052: x42+x48-y42_48 <=1 
C1053: x42+x49 <=1 
C1054: x42+x51-y42_51 <=1 
C1055: x42+x52-y42_52 <=1 
C1056: x42+x53 <=1 
C1057: x42+x54 <=1 
C1058: x42+x56 <=1 
C1059: x42+x57 <=1 
C1060: x42+x58-y42_58 <=1 
C1061: x42+x59-y42_59 <=1 
C1062: x42+x60 <=1 
C1063: x42+x61 <=1 
C1064: x42+x62 <=1 
C1065: x43+x45-y43_45 <=1 
C1066: x43+x46-y43_46 <=1 
C1067: x43+x49-y43_49 <=1 
C1068: x43+x50-y43_50 <=1 
C1069: x43+x51 <=1 
C1070: x43+x53 <=1 
C1071: x43+x55-y43_55 <=1 
C1072: x43+x56-y43_56 <=1 
C1073: x43+x59-y43_59 <=1 
C1074: x43+x61-y43_61 <=1 
C1075: x44+x45 <=1 
C1076: x44+x49-y44_49 <=1 
C1077: x44+x50 <=1 
C1078: x44+x52-y44_52 <=1 
C1079: x44+x54-y44_54 <=1 
C1080: x44+x55-y44_55 <=1 
C1081: x44+x59-y44_59 <=1 
C1082: x44+x62-y44_62 <=1 
C1083: x45+x46-y45_46 <=1 
C1084: x45+x48-y45_48 <=1 
C1085: x45+x49-y45_49 <=1 
C1086: x45+x52-y45_52 <=1 
C1087: x45+x55 <=1 
C1088: x45+x56 <=1 
C1089: x45+x57 <=1 
C1090: x45+x58-y45_58 <=1 
C1091: x45+x59-y45_59 <=1 
C1092: x45+x60-y45_60 <=1 
C1093: x45+x61 <=1 
C1094: x45+x62-y45_62 <=1 
C1095: x46+x47-y46_47 <=1 
C1096: x46+x51 <=1 
C1097: x46+x52-y46_52 <=1 
C1098: x46+x53-y46_53 <=1 
C1099: x46+x54-y46_54 <=1 
C1100: x46+x55-y46_55 <=1 
C1101: x46+x57 <=1 
C1102: x46+x61 <=1 
C1103: x46+x62-y46_62 <=1 
C1104: x47+x48-y47_48 <=1 
C1105: x47+x50-y47_50 <=1 
C1106: x47+x53 <=1 
C1107: x47+x54-y47_54 <=1 
C1108: x47+x55-y47_55 <=1 
C1109: x47+x56 <=1 
C1110: x47+x58-y47_58 <=1 
C1111: x47+x60 <=1 
C1112: x47+x62-y47_62 <=1 
C1113: x48+x49 <=1 
C1114: x48+x50-y48_50 <=1 
C1115: x48+x52-y48_52 <=1 
C1116: x48+x53 <=1 
C1117: x48+x55-y48_55 <=1 
C1118: x48+x57 <=1 
C1119: x48+x58 <=1 
C1120: x48+x61 <=1 
C1121: x49+x50 <=1 
C1122: x49+x52-y49_52 <=1 
C1123: x49+x53 <=1 
C1124: x49+x54 <=1 
C1125: x49+x55-y49_55 <=1 
C1126: x49+x56-y49_56 <=1 
C1127: x49+x57-y49_57 <=1 
C1128: x49+x61-y49_61 <=1 
C1129: x50+x51 <=1 
C1130: x50+x52 <=1 
C1131: x50+x53-y50_53 <=1 
C1132: x50+x60-y50_60 <=1 
C1133: x50+x61 <=1 
C1134: x51+x52-y51_52 <=1 
C1135: x51+x55 <=1 
C1136: x51+x56 <=1 
C1137: x51+x57 <=1 
C1138: x51+x60 <=1 
C1139: x51+x61-y51_61 <=1 
C1140: x51+x62 <=1 
C1141: x52+x55 <=1 
C1142: x52+x58 <=1 
C1143: x52+x61 <=1 
C1144: x53+x54-y53_54 <=1 
C1145: x53+x56-y53_56 <=1 
C1146: x53+x57 <=1 
C1147: x53+x59-y53_59 <=1 
C1148: x53+x61 <=1 
C1149: x53+x62 <=1 
C1150: x54+x55-y54_55 <=1 
C1151: x54+x57 <=1 
C1152: x54+x58-y54_58 <=1 
C1153: x54+x62-y54_62 <=1 
C1154: x55+x57-y55_57 <=1 
C1155: x55+x58 <=1 
C1156: x55+x60 <=1 
C1157: x55+x61 <=1 
C1158: x55+x62-y55_62 <=1 
C1159: x56+x57 <=1 
C1160: x56+x60-y56_60 <=1 
C1161: x56+x61-y56_61 <=1 
C1162: x56+x62 <=1 
C1163: x57+x60 <=1 
C1164: x57+x61 <=1 
C1165: x58+x59 <=1 
C1166: x58+x61-y58_61 <=1 
C1167: x58+x62 <=1 
C1168: x59+x60-y59_60 <=1 
C1169: x59+x61 <=1 
C1170: x61+x62-y61_62 <=1 

binary
x0
x1
x2
x3
x4
x5
x6
x7
x8
x9
x10
x11
x12
x13
x14
x15
x16
x17
x18
x19
x20
x21
x22
x23
x24
x25
x26
x27
x28
x29
x30
x31
x32
x33
x34
x35
x36
x37
x38
x39
x40
x41
x42
x43
x44
x45
x46
x47
x48
x49
x50
x51
x52
x53
x54
x55
x56
x57
x58
x59
x60
x61
x62
