problem_generation/data/GISP/train/er_n=63_m=1170_p=0.60_SET2_setparam=100.00_alpha=0.50_981.sol
objective value:                                 1177
x5                                                  1 	(obj:100)
x10                                                 1 	(obj:100)
x13                                                 1 	(obj:100)
x15                                                 1 	(obj:100)
x29                                                 1 	(obj:100)
x31                                                 1 	(obj:100)
x34                                                 1 	(obj:100)
x44                                                 1 	(obj:100)
x51                                                 1 	(obj:100)
x52                                                 1 	(obj:100)
x53                                                 1 	(obj:100)
x54                                                 1 	(obj:100)
y10_54                                              1 	(obj:-1)
y29_54                                              1 	(obj:-1)
y29_31                                              1 	(obj:-1)
y29_44                                              1 	(obj:-1)
y5_54                                               1 	(obj:-1)
y31_52                                              1 	(obj:-1)
y5_44                                               1 	(obj:-1)
y31_51                                              1 	(obj:-1)
y15_52                                              1 	(obj:-1)
y15_51                                              1 	(obj:-1)
y44_54                                              1 	(obj:-1)
y29_34                                              1 	(obj:-1)
y5_53                                               1 	(obj:-1)
y10_51                                              1 	(obj:-1)
y51_52                                              1 	(obj:-1)
y13_34                                              1 	(obj:-1)
y13_29                                              1 	(obj:-1)
y13_15                                              1 	(obj:-1)
y5_10                                               1 	(obj:-1)
y31_44                                              1 	(obj:-1)
y53_54                                              1 	(obj:-1)
y5_13                                               1 	(obj:-1)
y44_52                                              1 	(obj:-1)
